p cnf 966 2481
51 -2 -1 0
-51 2 0
-51 1 0
52 -51 -699 0
-52 51 0
-52 699 0
53 -4 -700 0
-53 4 0
-53 700 0
54 -53 -5 0
-54 53 0
-54 5 0
55 -701 -702 0
-55 701 0
-55 702 0
56 -703 -6 0
-56 703 0
-56 6 0
57 -56 -704 0
-57 56 0
-57 704 0
58 -705 -55 0
-58 705 0
-58 55 0
59 -706 -700 0
-59 706 0
-59 700 0
60 -59 -10 0
-60 59 0
-60 10 0
61 -707 -58 0
-61 707 0
-61 58 0
62 -708 -703 0
-62 708 0
-62 703 0
63 -62 -12 0
-63 62 0
-63 12 0
64 -709 -61 0
-64 709 0
-64 61 0
65 -13 -710 0
-65 13 0
-65 710 0
66 -65 -711 0
-66 65 0
-66 711 0
67 -712 -64 0
-67 712 0
-67 64 0
68 -713 -700 0
-68 713 0
-68 700 0
69 -68 -714 0
-69 68 0
-69 714 0
70 -715 -67 0
-70 715 0
-70 67 0
71 -716 -717 0
-71 716 0
-71 717 0
72 -71 -19 0
-72 71 0
-72 19 0
73 -718 -70 0
-73 718 0
-73 70 0
74 -20 -17 0
-74 20 0
-74 17 0
75 -74 -719 0
-75 74 0
-75 719 0
76 -720 -73 0
-76 720 0
-76 73 0
77 -721 -722 0
-77 721 0
-77 722 0
78 -77 -723 0
-78 77 0
-78 723 0
79 -724 -76 0
-79 724 0
-79 76 0
80 -4 -3 0
-80 4 0
-80 3 0
81 -80 -24 0
-81 80 0
-81 24 0
82 -725 -79 0
-82 725 0
-82 79 0
83 -7 -700 0
-83 7 0
-83 700 0
84 -83 -726 0
-84 83 0
-84 726 0
85 -727 -82 0
-85 727 0
-85 82 0
86 -721 -1 0
-86 721 0
-86 1 0
87 -86 -12 0
-87 86 0
-87 12 0
88 -728 -85 0
-88 728 0
-88 85 0
89 -729 -6 0
-89 729 0
-89 6 0
90 -89 -25 0
-90 89 0
-90 25 0
91 -730 -88 0
-91 730 0
-91 88 0
92 -731 -732 0
-92 731 0
-92 732 0
93 -92 -10 0
-93 92 0
-93 10 0
94 -733 -91 0
-94 733 0
-94 91 0
95 -734 -29 0
-95 734 0
-95 29 0
96 -95 -10 0
-96 95 0
-96 10 0
97 -735 -94 0
-97 735 0
-97 94 0
98 -23 -700 0
-98 23 0
-98 700 0
99 -98 -736 0
-99 98 0
-99 736 0
100 -737 -97 0
-100 737 0
-100 97 0
101 -738 -699 0
-101 738 0
-101 699 0
102 -101 -739 0
-102 101 0
-102 739 0
103 -740 -100 0
-103 740 0
-103 100 0
104 -33 -27 0
-104 33 0
-104 27 0
105 -104 -25 0
-105 104 0
-105 25 0
106 -741 -103 0
-106 741 0
-106 103 0
107 -34 -30 0
-107 34 0
-107 30 0
108 -107 -11 0
-108 107 0
-108 11 0
109 -742 -106 0
-109 742 0
-109 106 0
110 -36 -743 0
-110 36 0
-110 743 0
111 -110 -37 0
-111 110 0
-111 37 0
112 -744 -109 0
-112 744 0
-112 109 0
113 -745 -22 0
-113 745 0
-113 22 0
114 -113 -711 0
-114 113 0
-114 711 0
115 -746 -112 0
-115 746 0
-115 112 0
116 -729 -9 0
-116 729 0
-116 9 0
117 -116 -747 0
-117 116 0
-117 747 0
118 -748 -115 0
-118 748 0
-118 115 0
119 -714 -6 0
-119 714 0
-119 6 0
120 -119 -5 0
-120 119 0
-120 5 0
121 -749 -118 0
-121 749 0
-121 118 0
122 -35 -750 0
-122 35 0
-122 750 0
123 -122 -38 0
-123 122 0
-123 38 0
124 -751 -121 0
-124 751 0
-124 121 0
125 -22 -717 0
-125 22 0
-125 717 0
126 -125 -752 0
-126 125 0
-126 752 0
127 -753 -124 0
-127 753 0
-127 124 0
128 -743 -703 0
-128 743 0
-128 703 0
129 -128 -721 0
-129 128 0
-129 721 0
130 -754 -127 0
-130 754 0
-130 127 0
131 -745 -717 0
-131 745 0
-131 717 0
132 -131 -719 0
-132 131 0
-132 719 0
133 -755 -130 0
-133 755 0
-133 130 0
134 -756 -5 0
-134 756 0
-134 5 0
135 -134 -747 0
-135 134 0
-135 747 0
136 -757 -133 0
-136 757 0
-136 133 0
137 -738 -17 0
-137 738 0
-137 17 0
138 -137 -21 0
-138 137 0
-138 21 0
139 -758 -136 0
-139 758 0
-139 136 0
140 -41 -6 0
-140 41 0
-140 6 0
141 -140 -42 0
-141 140 0
-141 42 0
142 -759 -139 0
-142 759 0
-142 139 0
143 -760 -713 0
-143 760 0
-143 713 0
144 -143 -731 0
-144 143 0
-144 731 0
145 -761 -142 0
-145 761 0
-145 142 0
146 -760 -28 0
-146 760 0
-146 28 0
147 -146 -42 0
-147 146 0
-147 42 0
148 -762 -145 0
-148 762 0
-148 145 0
149 -33 -713 0
-149 33 0
-149 713 0
150 -149 -763 0
-150 149 0
-150 763 0
151 -764 -148 0
-151 764 0
-151 148 0
152 -765 -27 0
-152 765 0
-152 27 0
153 -152 -766 0
-153 152 0
-153 766 0
154 -767 -151 0
-154 767 0
-154 151 0
155 -768 -710 0
-155 768 0
-155 710 0
156 -155 -769 0
-156 155 0
-156 769 0
157 -770 -154 0
-157 770 0
-157 154 0
158 -738 -28 0
-158 738 0
-158 28 0
159 -158 -5 0
-159 158 0
-159 5 0
160 -771 -157 0
-160 771 0
-160 157 0
161 -23 -714 0
-161 23 0
-161 714 0
162 -161 -19 0
-162 161 0
-162 19 0
163 -772 -160 0
-163 772 0
-163 160 0
164 -773 -32 0
-164 773 0
-164 32 0
165 -164 -719 0
-165 164 0
-165 719 0
166 -774 -163 0
-166 774 0
-166 163 0
167 -28 -22 0
-167 28 0
-167 22 0
168 -167 -16 0
-168 167 0
-168 16 0
169 -775 -166 0
-169 775 0
-169 166 0
170 -43 -33 0
-170 43 0
-170 33 0
171 -170 -739 0
-171 170 0
-171 739 0
172 -776 -169 0
-172 776 0
-172 169 0
173 -44 -777 0
-173 44 0
-173 777 0
174 -173 -10 0
-174 173 0
-174 10 0
175 -778 -172 0
-175 778 0
-175 172 0
176 -29 -714 0
-176 29 0
-176 714 0
177 -176 -20 0
-177 176 0
-177 20 0
178 -779 -175 0
-178 779 0
-178 175 0
179 -45 -780 0
-179 45 0
-179 780 0
180 -179 -719 0
-180 179 0
-180 719 0
181 -781 -178 0
-181 781 0
-181 178 0
182 -745 -706 0
-182 745 0
-182 706 0
183 -182 -752 0
-183 182 0
-183 752 0
184 -782 -181 0
-184 782 0
-184 181 0
185 -780 -1 0
-185 780 0
-185 1 0
186 -185 -46 0
-186 185 0
-186 46 0
187 -783 -184 0
-187 783 0
-187 184 0
188 -32 -4 0
-188 32 0
-188 4 0
189 -188 -723 0
-189 188 0
-189 723 0
190 -784 -187 0
-190 784 0
-190 187 0
191 -739 -734 0
-191 739 0
-191 734 0
192 -191 -46 0
-192 191 0
-192 46 0
193 -785 -190 0
-193 785 0
-193 190 0
194 -44 -699 0
-194 44 0
-194 699 0
195 -194 -13 0
-195 194 0
-195 13 0
196 -786 -193 0
-196 786 0
-196 193 0
197 -36 -28 0
-197 36 0
-197 28 0
198 -197 -699 0
-198 197 0
-198 699 0
199 -787 -196 0
-199 787 0
-199 196 0
200 -47 -23 0
-200 47 0
-200 23 0
201 -200 -46 0
-201 200 0
-201 46 0
202 -788 -199 0
-202 788 0
-202 199 0
203 -37 -763 0
-203 37 0
-203 763 0
204 -203 -19 0
-204 203 0
-204 19 0
205 -789 -202 0
-205 789 0
-205 202 0
206 -777 -763 0
-206 777 0
-206 763 0
207 -206 -20 0
-207 206 0
-207 20 0
208 -790 -205 0
-208 790 0
-208 205 0
209 -791 -46 0
-209 791 0
-209 46 0
210 -209 -719 0
-210 209 0
-210 719 0
211 -792 -208 0
-211 792 0
-211 208 0
212 -729 -22 0
-212 729 0
-212 22 0
213 -212 -39 0
-213 212 0
-213 39 0
214 -793 -211 0
-214 793 0
-214 211 0
215 -30 -729 0
-215 30 0
-215 729 0
216 -215 -8 0
-216 215 0
-216 8 0
217 -794 -214 0
-217 794 0
-217 214 0
218 -795 -745 0
-218 795 0
-218 745 0
219 -218 -48 0
-219 218 0
-219 48 0
220 -796 -217 0
-220 796 0
-220 217 0
221 -745 -30 0
-221 745 0
-221 30 0
222 -221 -17 0
-222 221 0
-222 17 0
223 -797 -220 0
-223 797 0
-223 220 0
224 -795 -6 0
-224 795 0
-224 6 0
225 -224 -703 0
-225 224 0
-225 703 0
226 -798 -223 0
-226 798 0
-226 223 0
227 -739 -699 0
-227 739 0
-227 699 0
228 -227 -34 0
-228 227 0
-228 34 0
229 -799 -226 0
-229 799 0
-229 226 0
230 -795 -769 0
-230 795 0
-230 769 0
231 -230 -21 0
-231 230 0
-231 21 0
232 -800 -229 0
-232 800 0
-232 229 0
233 -722 -16 0
-233 722 0
-233 16 0
234 -233 -19 0
-234 233 0
-234 19 0
235 -801 -232 0
-235 801 0
-235 232 0
236 -765 -8 0
-236 765 0
-236 8 0
237 -236 -752 0
-237 236 0
-237 752 0
238 -802 -235 0
-238 802 0
-238 235 0
239 -30 -2 0
-239 30 0
-239 2 0
240 -239 -32 0
-240 239 0
-240 32 0
241 -803 -238 0
-241 803 0
-241 238 0
242 -734 -6 0
-242 734 0
-242 6 0
243 -242 -704 0
-243 242 0
-243 704 0
244 -804 -241 0
-244 804 0
-244 241 0
245 -49 -791 0
-245 49 0
-245 791 0
246 -245 -34 0
-246 245 0
-246 34 0
247 -805 -244 0
-247 805 0
-247 244 0
248 -50 -44 0
-248 50 0
-248 44 0
249 -248 -706 0
-249 248 0
-249 706 0
250 -806 -247 0
-250 806 0
-250 247 0
251 -760 -34 0
-251 760 0
-251 34 0
252 -251 -25 0
-252 251 0
-252 25 0
253 -807 -250 0
-253 807 0
-253 250 0
254 -732 -15 0
-254 732 0
-254 15 0
255 -254 -14 0
-255 254 0
-255 14 0
256 -808 -253 0
-256 808 0
-256 253 0
257 -33 -18 0
-257 33 0
-257 18 0
258 -257 -726 0
-258 257 0
-258 726 0
259 -809 -256 0
-259 809 0
-259 256 0
260 -46 -45 0
-260 46 0
-260 45 0
261 -260 -42 0
-261 260 0
-261 42 0
262 -810 -259 0
-262 810 0
-262 259 0
263 -16 -713 0
-263 16 0
-263 713 0
264 -263 -719 0
-264 263 0
-264 719 0
265 -811 -262 0
-265 811 0
-265 262 0
266 -35 -763 0
-266 35 0
-266 763 0
267 -266 -20 0
-267 266 0
-267 20 0
268 -812 -265 0
-268 812 0
-268 265 0
269 -813 -17 0
-269 813 0
-269 17 0
270 -269 -19 0
-270 269 0
-270 19 0
271 -814 -268 0
-271 814 0
-271 268 0
272 -44 -20 0
-272 44 0
-272 20 0
273 -272 -47 0
-273 272 0
-273 47 0
274 -815 -271 0
-274 815 0
-274 271 0
275 -41 -769 0
-275 41 0
-275 769 0
276 -275 -816 0
-276 275 0
-276 816 0
277 -817 -274 0
-277 817 0
-277 274 0
278 -45 -732 0
-278 45 0
-278 732 0
279 -278 -36 0
-279 278 0
-279 36 0
280 -818 -277 0
-280 818 0
-280 277 0
281 -743 -30 0
-281 743 0
-281 30 0
282 -281 -813 0
-282 281 0
-282 813 0
283 -819 -280 0
-283 819 0
-283 280 0
284 -791 -716 0
-284 791 0
-284 716 0
285 -284 -719 0
-285 284 0
-285 719 0
286 -820 -283 0
-286 820 0
-286 283 0
287 -30 -763 0
-287 30 0
-287 763 0
288 -287 -10 0
-288 287 0
-288 10 0
289 -821 -286 0
-289 821 0
-289 286 0
290 -49 -743 0
-290 49 0
-290 743 0
291 -290 -726 0
-291 290 0
-291 726 0
292 -822 -289 0
-292 822 0
-292 289 0
293 -28 -13 0
-293 28 0
-293 13 0
294 -293 -739 0
-294 293 0
-294 739 0
295 -823 -292 0
-295 823 0
-295 292 0
296 -26 -13 0
-296 26 0
-296 13 0
297 -296 -24 0
-297 296 0
-297 24 0
298 -824 -295 0
-298 824 0
-298 295 0
299 -825 -5 0
-299 825 0
-299 5 0
300 -299 -11 0
-300 299 0
-300 11 0
301 -826 -298 0
-301 826 0
-301 298 0
302 -11 -699 0
-302 11 0
-302 699 0
303 -302 -25 0
-303 302 0
-303 25 0
304 -827 -301 0
-304 827 0
-304 301 0
305 -773 -3 0
-305 773 0
-305 3 0
306 -305 -729 0
-306 305 0
-306 729 0
307 -828 -304 0
-307 828 0
-307 304 0
308 -50 -780 0
-308 50 0
-308 780 0
309 -308 -49 0
-309 308 0
-309 49 0
310 -829 -307 0
-310 829 0
-310 307 0
311 -15 -699 0
-311 15 0
-311 699 0
312 -311 -18 0
-312 311 0
-312 18 0
313 -830 -310 0
-313 830 0
-313 310 0
314 -40 -704 0
-314 40 0
-314 704 0
315 -314 -11 0
-315 314 0
-315 11 0
316 -831 -313 0
-316 831 0
-316 313 0
317 -756 -717 0
-317 756 0
-317 717 0
318 -317 -832 0
-318 317 0
-318 832 0
319 -833 -316 0
-319 833 0
-319 316 0
320 -38 -16 0
-320 38 0
-320 16 0
321 -320 -766 0
-321 320 0
-321 766 0
322 -834 -319 0
-322 834 0
-322 319 0
323 -768 -15 0
-323 768 0
-323 15 0
324 -323 -704 0
-324 323 0
-324 704 0
325 -835 -322 0
-325 835 0
-325 322 0
326 -836 -44 0
-326 836 0
-326 44 0
327 -326 -719 0
-327 326 0
-327 719 0
328 -837 -325 0
-328 837 0
-328 325 0
329 -739 -22 0
-329 739 0
-329 22 0
330 -329 -46 0
-330 329 0
-330 46 0
331 -838 -328 0
-331 838 0
-331 328 0
332 -38 -703 0
-332 38 0
-332 703 0
333 -332 -839 0
-333 332 0
-333 839 0
334 -840 -331 0
-334 840 0
-334 331 0
335 -706 -6 0
-335 706 0
-335 6 0
336 -335 -703 0
-336 335 0
-336 703 0
337 -841 -334 0
-337 841 0
-337 334 0
338 -41 -722 0
-338 41 0
-338 722 0
339 -338 -9 0
-339 338 0
-339 9 0
340 -842 -337 0
-340 842 0
-340 337 0
341 -769 -16 0
-341 769 0
-341 16 0
342 -341 -832 0
-342 341 0
-342 832 0
343 -843 -340 0
-343 843 0
-343 340 0
344 -738 -731 0
-344 738 0
-344 731 0
345 -344 -739 0
-345 344 0
-345 739 0
346 -844 -343 0
-346 844 0
-346 343 0
347 -734 -1 0
-347 734 0
-347 1 0
348 -347 -739 0
-348 347 0
-348 739 0
349 -845 -346 0
-349 845 0
-349 346 0
350 -736 -722 0
-350 736 0
-350 722 0
351 -350 -846 0
-351 350 0
-351 846 0
352 -847 -349 0
-352 847 0
-352 349 0
353 -16 -704 0
-353 16 0
-353 704 0
354 -353 -719 0
-354 353 0
-354 719 0
355 -848 -352 0
-355 848 0
-355 352 0
356 -43 -743 0
-356 43 0
-356 743 0
357 -356 -2 0
-357 356 0
-357 2 0
358 -849 -355 0
-358 849 0
-358 355 0
359 -40 -2 0
-359 40 0
-359 2 0
360 -359 -7 0
-360 359 0
-360 7 0
361 -850 -358 0
-361 850 0
-361 358 0
362 -760 -30 0
-362 760 0
-362 30 0
363 -362 -716 0
-363 362 0
-363 716 0
364 -851 -361 0
-364 851 0
-364 361 0
365 -26 -716 0
-365 26 0
-365 716 0
366 -365 -846 0
-366 365 0
-366 846 0
367 -852 -364 0
-367 852 0
-367 364 0
368 -43 -734 0
-368 43 0
-368 734 0
369 -368 -14 0
-369 368 0
-369 14 0
370 -853 -367 0
-370 853 0
-370 367 0
371 -773 -28 0
-371 773 0
-371 28 0
372 -371 -40 0
-372 371 0
-372 40 0
373 -854 -370 0
-373 854 0
-373 370 0
374 -765 -1 0
-374 765 0
-374 1 0
375 -374 -719 0
-375 374 0
-375 719 0
376 -855 -373 0
-376 855 0
-376 373 0
377 -756 -3 0
-377 756 0
-377 3 0
378 -377 -20 0
-378 377 0
-378 20 0
379 -856 -376 0
-379 856 0
-379 376 0
380 -50 -43 0
-380 50 0
-380 43 0
381 -380 -23 0
-381 380 0
-381 23 0
382 -857 -379 0
-382 857 0
-382 379 0
383 -10 -858 0
-383 10 0
-383 858 0
384 -383 -736 0
-384 383 0
-384 736 0
385 -859 -382 0
-385 859 0
-385 382 0
386 -739 -8 0
-386 739 0
-386 8 0
387 -386 -711 0
-387 386 0
-387 711 0
388 -860 -385 0
-388 860 0
-388 385 0
389 -768 -26 0
-389 768 0
-389 26 0
390 -389 -21 0
-390 389 0
-390 21 0
391 -861 -388 0
-391 861 0
-391 388 0
392 -760 -732 0
-392 760 0
-392 732 0
393 -392 -703 0
-393 392 0
-393 703 0
394 -862 -391 0
-394 862 0
-394 391 0
395 -22 -716 0
-395 22 0
-395 716 0
396 -395 -839 0
-396 395 0
-396 839 0
397 -863 -394 0
-397 863 0
-397 394 0
398 -738 -27 0
-398 738 0
-398 27 0
399 -398 -41 0
-399 398 0
-399 41 0
400 -864 -397 0
-400 864 0
-400 397 0
401 -33 -731 0
-401 33 0
-401 731 0
402 -401 -699 0
-402 401 0
-402 699 0
403 -865 -400 0
-403 865 0
-403 400 0
404 -734 -20 0
-404 734 0
-404 20 0
405 -404 -745 0
-405 404 0
-405 745 0
406 -866 -403 0
-406 866 0
-406 403 0
407 -813 -8 0
-407 813 0
-407 8 0
408 -407 -726 0
-408 407 0
-408 726 0
409 -867 -406 0
-409 867 0
-409 406 0
410 -777 -732 0
-410 777 0
-410 732 0
411 -410 -714 0
-411 410 0
-411 714 0
412 -868 -409 0
-412 868 0
-412 409 0
413 -16 -706 0
-413 16 0
-413 706 0
414 -413 -20 0
-414 413 0
-414 20 0
415 -869 -412 0
-415 869 0
-415 412 0
416 -37 -16 0
-416 37 0
-416 16 0
417 -416 -708 0
-417 416 0
-417 708 0
418 -870 -415 0
-418 870 0
-418 415 0
419 -29 -729 0
-419 29 0
-419 729 0
420 -419 -10 0
-420 419 0
-420 10 0
421 -871 -418 0
-421 871 0
-421 418 0
422 -33 -763 0
-422 33 0
-422 763 0
423 -422 -9 0
-423 422 0
-423 9 0
424 -872 -421 0
-424 872 0
-424 421 0
425 -813 -743 0
-425 813 0
-425 743 0
426 -425 -726 0
-426 425 0
-426 726 0
427 -873 -424 0
-427 873 0
-427 424 0
428 -719 -5 0
-428 719 0
-428 5 0
429 -428 -42 0
-429 428 0
-429 42 0
430 -874 -427 0
-430 874 0
-430 427 0
431 -29 -4 0
-431 29 0
-431 4 0
432 -431 -22 0
-432 431 0
-432 22 0
433 -875 -430 0
-433 875 0
-433 430 0
434 -876 -765 0
-434 876 0
-434 765 0
435 -434 -38 0
-435 434 0
-435 38 0
436 -877 -433 0
-436 877 0
-436 433 0
437 -40 -30 0
-437 40 0
-437 30 0
438 -437 -769 0
-438 437 0
-438 769 0
439 -878 -436 0
-439 878 0
-439 436 0
440 -876 -738 0
-440 876 0
-440 738 0
441 -440 -708 0
-441 440 0
-441 708 0
442 -879 -439 0
-442 879 0
-442 439 0
443 -29 -23 0
-443 29 0
-443 23 0
444 -443 -47 0
-444 443 0
-444 47 0
445 -880 -442 0
-445 880 0
-445 442 0
446 -15 -780 0
-446 15 0
-446 780 0
447 -446 -747 0
-447 446 0
-447 747 0
448 -881 -445 0
-448 881 0
-448 445 0
449 -731 -858 0
-449 731 0
-449 858 0
450 -449 -42 0
-450 449 0
-450 42 0
451 -882 -448 0
-451 882 0
-451 448 0
452 -713 -747 0
-452 713 0
-452 747 0
453 -452 -766 0
-453 452 0
-453 766 0
454 -883 -451 0
-454 883 0
-454 451 0
455 -731 -713 0
-455 731 0
-455 713 0
456 -455 -739 0
-456 455 0
-456 739 0
457 -884 -454 0
-457 884 0
-457 454 0
458 -825 -763 0
-458 825 0
-458 763 0
459 -458 -25 0
-459 458 0
-459 25 0
460 -885 -457 0
-460 885 0
-460 457 0
461 -795 -734 0
-461 795 0
-461 734 0
462 -461 -36 0
-462 461 0
-462 36 0
463 -886 -460 0
-463 886 0
-463 460 0
464 -36 -2 0
-464 36 0
-464 2 0
465 -464 -37 0
-465 464 0
-465 37 0
466 -887 -463 0
-466 887 0
-466 463 0
467 -739 -6 0
-467 739 0
-467 6 0
468 -467 -24 0
-468 467 0
-468 24 0
469 -888 -466 0
-469 888 0
-469 466 0
470 -34 -28 0
-470 34 0
-470 28 0
471 -470 -736 0
-471 470 0
-471 736 0
472 -889 -469 0
-472 889 0
-472 469 0
473 -769 -20 0
-473 769 0
-473 20 0
474 -473 -8 0
-474 473 0
-474 8 0
475 -890 -472 0
-475 890 0
-475 472 0
476 -33 -780 0
-476 33 0
-476 780 0
477 -476 -50 0
-477 476 0
-477 50 0
478 -891 -475 0
-478 891 0
-478 475 0
479 -155 -750 0
-479 155 0
-479 750 0
480 -892 -478 0
-480 892 0
-480 478 0
481 -401 -19 0
-481 401 0
-481 19 0
482 -893 -480 0
-482 893 0
-482 480 0
483 -40 -32 0
-483 40 0
-483 32 0
484 -483 -47 0
-484 483 0
-484 47 0
485 -894 -482 0
-485 894 0
-485 482 0
486 -20 -700 0
-486 20 0
-486 700 0
487 -486 -739 0
-487 486 0
-487 739 0
488 -895 -485 0
-488 895 0
-488 485 0
489 -750 -10 0
-489 750 0
-489 10 0
490 -489 -25 0
-490 489 0
-490 25 0
491 -896 -488 0
-491 896 0
-491 488 0
492 -23 -4 0
-492 23 0
-492 4 0
493 -492 -723 0
-493 492 0
-493 723 0
494 -897 -491 0
-494 897 0
-494 491 0
495 -813 -713 0
-495 813 0
-495 713 0
496 -495 -756 0
-496 495 0
-496 756 0
497 -898 -494 0
-497 898 0
-497 494 0
498 -26 -6 0
-498 26 0
-498 6 0
499 -498 -25 0
-499 498 0
-499 25 0
500 -899 -497 0
-500 899 0
-500 497 0
501 -795 -832 0
-501 795 0
-501 832 0
502 -501 -736 0
-502 501 0
-502 736 0
503 -900 -500 0
-503 900 0
-503 500 0
504 -745 -729 0
-504 745 0
-504 729 0
505 -504 -42 0
-505 504 0
-505 42 0
506 -901 -503 0
-506 901 0
-506 503 0
507 -703 -4 0
-507 703 0
-507 4 0
508 -507 -752 0
-508 507 0
-508 752 0
509 -902 -506 0
-509 902 0
-509 506 0
510 -22 -16 0
-510 22 0
-510 16 0
511 -510 -26 0
-511 510 0
-511 26 0
512 -903 -509 0
-512 903 0
-512 509 0
513 -704 -858 0
-513 704 0
-513 858 0
514 -513 -14 0
-514 513 0
-514 14 0
515 -904 -512 0
-515 904 0
-515 512 0
516 -716 -5 0
-516 716 0
-516 5 0
517 -516 -46 0
-517 516 0
-517 46 0
518 -905 -515 0
-518 905 0
-518 515 0
519 -791 -40 0
-519 791 0
-519 40 0
520 -519 -12 0
-520 519 0
-520 12 0
521 -906 -518 0
-521 906 0
-521 518 0
522 -765 -26 0
-522 765 0
-522 26 0
523 -522 -19 0
-523 522 0
-523 19 0
524 -907 -521 0
-524 907 0
-524 521 0
525 -41 -15 0
-525 41 0
-525 15 0
526 -525 -14 0
-526 525 0
-526 14 0
527 -908 -524 0
-527 908 0
-527 524 0
528 -713 -710 0
-528 713 0
-528 710 0
529 -528 -836 0
-529 528 0
-529 836 0
530 -909 -527 0
-530 909 0
-530 527 0
531 -732 -6 0
-531 732 0
-531 6 0
532 -531 -22 0
-532 531 0
-532 22 0
533 -910 -530 0
-533 910 0
-533 530 0
534 -15 -3 0
-534 15 0
-534 3 0
535 -534 -766 0
-535 534 0
-535 766 0
536 -911 -533 0
-536 911 0
-536 533 0
537 -743 -780 0
-537 743 0
-537 780 0
538 -537 -2 0
-538 537 0
-538 2 0
539 -912 -536 0
-539 912 0
-539 536 0
540 -747 -858 0
-540 747 0
-540 858 0
541 -540 -12 0
-541 540 0
-541 12 0
542 -913 -539 0
-542 913 0
-542 539 0
543 -839 -825 0
-543 839 0
-543 825 0
544 -543 -816 0
-544 543 0
-544 816 0
545 -914 -542 0
-545 914 0
-545 542 0
546 -6 -763 0
-546 6 0
-546 763 0
547 -546 -47 0
-547 546 0
-547 47 0
548 -915 -545 0
-548 915 0
-548 545 0
549 -27 -723 0
-549 27 0
-549 723 0
550 -549 -48 0
-550 549 0
-550 48 0
551 -916 -548 0
-551 916 0
-551 548 0
552 -49 -27 0
-552 49 0
-552 27 0
553 -552 -832 0
-553 552 0
-553 832 0
554 -917 -551 0
-554 917 0
-554 551 0
555 -47 -21 0
-555 47 0
-555 21 0
556 -555 -832 0
-556 555 0
-556 832 0
557 -918 -554 0
-557 918 0
-557 554 0
558 -777 -706 0
-558 777 0
-558 706 0
559 -558 -716 0
-559 558 0
-559 716 0
560 -919 -557 0
-560 919 0
-560 557 0
561 -876 -8 0
-561 876 0
-561 8 0
562 -561 -19 0
-562 561 0
-562 19 0
563 -920 -560 0
-563 920 0
-563 560 0
564 -47 -706 0
-564 47 0
-564 706 0
565 -564 -711 0
-565 564 0
-565 711 0
566 -921 -563 0
-566 921 0
-566 563 0
567 -24 -723 0
-567 24 0
-567 723 0
568 -567 -25 0
-568 567 0
-568 25 0
569 -922 -566 0
-569 922 0
-569 566 0
570 -739 -858 0
-570 739 0
-570 858 0
571 -570 -11 0
-571 570 0
-571 11 0
572 -923 -569 0
-572 923 0
-572 569 0
573 -723 -10 0
-573 723 0
-573 10 0
574 -573 -726 0
-574 573 0
-574 726 0
575 -924 -572 0
-575 924 0
-575 572 0
576 -706 -5 0
-576 706 0
-576 5 0
577 -576 -836 0
-577 576 0
-577 836 0
578 -925 -575 0
-578 925 0
-578 575 0
579 -10 -703 0
-579 10 0
-579 703 0
580 -579 -25 0
-580 579 0
-580 25 0
581 -926 -578 0
-581 926 0
-581 578 0
582 -791 -750 0
-582 791 0
-582 750 0
583 -582 -14 0
-583 582 0
-583 14 0
584 -927 -581 0
-584 927 0
-584 581 0
585 -50 -38 0
-585 50 0
-585 38 0
586 -585 -736 0
-586 585 0
-586 736 0
587 -928 -584 0
-587 928 0
-587 584 0
588 -846 -29 0
-588 846 0
-588 29 0
589 -588 -752 0
-589 588 0
-589 752 0
590 -929 -587 0
-590 929 0
-590 587 0
591 -836 -8 0
-591 836 0
-591 8 0
592 -591 -716 0
-592 591 0
-592 716 0
593 -930 -590 0
-593 930 0
-593 590 0
594 -36 -29 0
-594 36 0
-594 29 0
595 -594 -825 0
-595 594 0
-595 825 0
596 -931 -593 0
-596 931 0
-596 593 0
597 -716 -780 0
-597 716 0
-597 780 0
598 -597 -48 0
-598 597 0
-598 48 0
599 -932 -596 0
-599 932 0
-599 596 0
600 -876 -756 0
-600 876 0
-600 756 0
601 -600 -839 0
-601 600 0
-601 839 0
602 -933 -599 0
-602 933 0
-602 599 0
603 -765 -763 0
-603 765 0
-603 763 0
604 -603 -714 0
-604 603 0
-604 714 0
605 -934 -602 0
-605 934 0
-605 602 0
606 -43 -713 0
-606 43 0
-606 713 0
607 -606 -41 0
-607 606 0
-607 41 0
608 -935 -605 0
-608 935 0
-608 605 0
609 -777 -7 0
-609 777 0
-609 7 0
610 -609 -739 0
-610 609 0
-610 739 0
611 -936 -608 0
-611 936 0
-611 608 0
612 -30 -22 0
-612 30 0
-612 22 0
613 -612 -729 0
-613 612 0
-613 729 0
614 -937 -611 0
-614 937 0
-614 611 0
615 -44 -4 0
-615 44 0
-615 4 0
616 -615 -723 0
-616 615 0
-616 723 0
617 -938 -614 0
-617 938 0
-617 614 0
618 -13 -723 0
-618 13 0
-618 723 0
619 -618 -816 0
-619 618 0
-619 816 0
620 -939 -617 0
-620 939 0
-620 617 0
621 -769 -713 0
-621 769 0
-621 713 0
622 -621 -19 0
-622 621 0
-622 19 0
623 -940 -620 0
-623 940 0
-623 620 0
624 -11 -8 0
-624 11 0
-624 8 0
625 -624 -846 0
-625 624 0
-625 846 0
626 -941 -623 0
-626 941 0
-626 623 0
627 -722 -19 0
-627 722 0
-627 19 0
628 -627 -736 0
-628 627 0
-628 736 0
629 -942 -626 0
-629 942 0
-629 626 0
630 -40 -16 0
-630 40 0
-630 16 0
631 -630 -745 0
-631 630 0
-631 745 0
632 -943 -629 0
-632 943 0
-632 629 0
633 -739 -763 0
-633 739 0
-633 763 0
634 -633 -846 0
-634 633 0
-634 846 0
635 -944 -632 0
-635 944 0
-635 632 0
636 -703 -3 0
-636 703 0
-636 3 0
637 -636 -12 0
-637 636 0
-637 12 0
638 -945 -635 0
-638 945 0
-638 635 0
639 -38 -704 0
-639 38 0
-639 704 0
640 -639 -13 0
-640 639 0
-640 13 0
641 -946 -638 0
-641 946 0
-641 638 0
642 -48 -832 0
-642 48 0
-642 832 0
643 -642 -726 0
-643 642 0
-643 726 0
644 -947 -641 0
-644 947 0
-644 641 0
645 -18 -706 0
-645 18 0
-645 706 0
646 -645 -25 0
-646 645 0
-646 25 0
647 -948 -644 0
-647 948 0
-647 644 0
648 -425 -37 0
-648 425 0
-648 37 0
649 -949 -647 0
-649 949 0
-649 647 0
650 -839 -703 0
-650 839 0
-650 703 0
651 -650 -711 0
-651 650 0
-651 711 0
652 -950 -649 0
-652 950 0
-652 649 0
653 -743 -713 0
-653 743 0
-653 713 0
654 -653 -747 0
-654 653 0
-654 747 0
655 -951 -652 0
-655 951 0
-655 652 0
656 -22 -700 0
-656 22 0
-656 700 0
657 -656 -34 0
-657 656 0
-657 34 0
658 -952 -655 0
-658 952 0
-658 655 0
659 -45 -40 0
-659 45 0
-659 40 0
660 -659 -18 0
-660 659 0
-660 18 0
661 -953 -658 0
-661 953 0
-661 658 0
662 -765 -28 0
-662 765 0
-662 28 0
663 -662 -729 0
-663 662 0
-663 729 0
664 -954 -661 0
-664 954 0
-664 661 0
665 -791 -23 0
-665 791 0
-665 23 0
666 -665 -46 0
-666 665 0
-666 46 0
667 -955 -664 0
-667 955 0
-667 664 0
668 -743 -734 0
-668 743 0
-668 734 0
669 -668 -50 0
-669 668 0
-669 50 0
670 -956 -667 0
-670 956 0
-670 667 0
671 -47 -27 0
-671 47 0
-671 27 0
672 -671 -48 0
-672 671 0
-672 48 0
673 -957 -670 0
-673 957 0
-673 670 0
674 -579 -708 0
-674 579 0
-674 708 0
675 -958 -673 0
-675 958 0
-675 673 0
676 -773 -760 0
-676 773 0
-676 760 0
677 -676 -7 0
-677 676 0
-677 7 0
678 -959 -675 0
-678 959 0
-678 675 0
679 -766 -713 0
-679 766 0
-679 713 0
680 -679 -39 0
-680 679 0
-680 39 0
681 -960 -678 0
-681 960 0
-681 678 0
682 -41 -734 0
-682 41 0
-682 734 0
683 -682 -699 0
-683 682 0
-683 699 0
684 -961 -681 0
-684 961 0
-684 681 0
685 -836 -768 0
-685 836 0
-685 768 0
686 -685 -38 0
-686 685 0
-686 38 0
687 -962 -684 0
-687 962 0
-687 684 0
688 -41 -713 0
-688 41 0
-688 713 0
689 -688 -836 0
-689 688 0
-689 836 0
690 -963 -687 0
-690 963 0
-690 687 0
691 -679 -42 0
-691 679 0
-691 42 0
692 -964 -690 0
-692 964 0
-692 690 0
693 -35 -9 0
-693 35 0
-693 9 0
694 -693 -23 0
-694 693 0
-694 23 0
695 -965 -692 0
-695 965 0
-695 692 0
696 -36 -716 0
-696 36 0
-696 716 0
697 -696 -839 0
-697 696 0
-697 839 0
698 -966 -695 0
-698 966 0
-698 695 0
-699 -3 0
699 3 0
-700 -1 0
700 1 0
-701 -54 0
701 54 0
-702 -52 0
702 52 0
-703 -7 0
703 7 0
-704 -8 0
704 8 0
-705 -57 0
705 57 0
-706 -9 0
706 9 0
-707 -60 0
707 60 0
-708 -11 0
708 11 0
-709 -63 0
709 63 0
-710 -5 0
710 5 0
-711 -14 0
711 14 0
-712 -66 0
712 66 0
-713 -15 0
713 15 0
-714 -16 0
714 16 0
-715 -69 0
715 69 0
-716 -18 0
716 18 0
-717 -17 0
717 17 0
-718 -72 0
718 72 0
-719 -21 0
719 21 0
-720 -75 0
720 75 0
-721 -23 0
721 23 0
-722 -22 0
722 22 0
-723 -12 0
723 12 0
-724 -78 0
724 78 0
-725 -81 0
725 81 0
-726 -25 0
726 25 0
-727 -84 0
727 84 0
-728 -87 0
728 87 0
-729 -26 0
729 26 0
-730 -90 0
730 90 0
-731 -28 0
731 28 0
-732 -27 0
732 27 0
-733 -93 0
733 93 0
-734 -30 0
734 30 0
-735 -96 0
735 96 0
-736 -24 0
736 24 0
-737 -99 0
737 99 0
-738 -31 0
738 31 0
-739 -32 0
739 32 0
-740 -102 0
740 102 0
-741 -105 0
741 105 0
-742 -108 0
742 108 0
-743 -35 0
743 35 0
-744 -111 0
744 111 0
-745 -38 0
745 38 0
-746 -114 0
746 114 0
-747 -13 0
747 13 0
-748 -117 0
748 117 0
-749 -120 0
749 120 0
-750 -20 0
750 20 0
-751 -123 0
751 123 0
-752 -39 0
752 39 0
-753 -126 0
753 126 0
-754 -129 0
754 129 0
-755 -132 0
755 132 0
-756 -40 0
756 40 0
-757 -135 0
757 135 0
-758 -138 0
758 138 0
-759 -141 0
759 141 0
-760 -43 0
760 43 0
-761 -144 0
761 144 0
-762 -147 0
762 147 0
-763 -2 0
763 2 0
-764 -150 0
764 150 0
-765 -36 0
765 36 0
-766 -19 0
766 19 0
-767 -153 0
767 153 0
-768 -29 0
768 29 0
-769 -37 0
769 37 0
-770 -156 0
770 156 0
-771 -159 0
771 159 0
-772 -162 0
772 162 0
-773 -44 0
773 44 0
-774 -165 0
774 165 0
-775 -168 0
775 168 0
-776 -171 0
776 171 0
-777 -33 0
777 33 0
-778 -174 0
778 174 0
-779 -177 0
779 177 0
-780 -6 0
780 6 0
-781 -180 0
781 180 0
-782 -183 0
782 183 0
-783 -186 0
783 186 0
-784 -189 0
784 189 0
-785 -192 0
785 192 0
-786 -195 0
786 195 0
-787 -198 0
787 198 0
-788 -201 0
788 201 0
-789 -204 0
789 204 0
-790 -207 0
790 207 0
-791 -47 0
791 47 0
-792 -210 0
792 210 0
-793 -213 0
793 213 0
-794 -216 0
794 216 0
-795 -45 0
795 45 0
-796 -219 0
796 219 0
-797 -222 0
797 222 0
-798 -225 0
798 225 0
-799 -228 0
799 228 0
-800 -231 0
800 231 0
-801 -234 0
801 234 0
-802 -237 0
802 237 0
-803 -240 0
803 240 0
-804 -243 0
804 243 0
-805 -246 0
805 246 0
-806 -249 0
806 249 0
-807 -252 0
807 252 0
-808 -255 0
808 255 0
-809 -258 0
809 258 0
-810 -261 0
810 261 0
-811 -264 0
811 264 0
-812 -267 0
812 267 0
-813 -41 0
813 41 0
-814 -270 0
814 270 0
-815 -273 0
815 273 0
-816 -48 0
816 48 0
-817 -276 0
817 276 0
-818 -279 0
818 279 0
-819 -282 0
819 282 0
-820 -285 0
820 285 0
-821 -288 0
821 288 0
-822 -291 0
822 291 0
-823 -294 0
823 294 0
-824 -297 0
824 297 0
-825 -10 0
825 10 0
-826 -300 0
826 300 0
-827 -303 0
827 303 0
-828 -306 0
828 306 0
-829 -309 0
829 309 0
-830 -312 0
830 312 0
-831 -315 0
831 315 0
-832 -34 0
832 34 0
-833 -318 0
833 318 0
-834 -321 0
834 321 0
-835 -324 0
835 324 0
-836 -49 0
836 49 0
-837 -327 0
837 327 0
-838 -330 0
838 330 0
-839 -46 0
839 46 0
-840 -333 0
840 333 0
-841 -336 0
841 336 0
-842 -339 0
842 339 0
-843 -342 0
843 342 0
-844 -345 0
844 345 0
-845 -348 0
845 348 0
-846 -42 0
846 42 0
-847 -351 0
847 351 0
-848 -354 0
848 354 0
-849 -357 0
849 357 0
-850 -360 0
850 360 0
-851 -363 0
851 363 0
-852 -366 0
852 366 0
-853 -369 0
853 369 0
-854 -372 0
854 372 0
-855 -375 0
855 375 0
-856 -378 0
856 378 0
-857 -381 0
857 381 0
-858 -4 0
858 4 0
-859 -384 0
859 384 0
-860 -387 0
860 387 0
-861 -390 0
861 390 0
-862 -393 0
862 393 0
-863 -396 0
863 396 0
-864 -399 0
864 399 0
-865 -402 0
865 402 0
-866 -405 0
866 405 0
-867 -408 0
867 408 0
-868 -411 0
868 411 0
-869 -414 0
869 414 0
-870 -417 0
870 417 0
-871 -420 0
871 420 0
-872 -423 0
872 423 0
-873 -426 0
873 426 0
-874 -429 0
874 429 0
-875 -432 0
875 432 0
-876 -50 0
876 50 0
-877 -435 0
877 435 0
-878 -438 0
878 438 0
-879 -441 0
879 441 0
-880 -444 0
880 444 0
-881 -447 0
881 447 0
-882 -450 0
882 450 0
-883 -453 0
883 453 0
-884 -456 0
884 456 0
-885 -459 0
885 459 0
-886 -462 0
886 462 0
-887 -465 0
887 465 0
-888 -468 0
888 468 0
-889 -471 0
889 471 0
-890 -474 0
890 474 0
-891 -477 0
891 477 0
-892 -479 0
892 479 0
-893 -481 0
893 481 0
-894 -484 0
894 484 0
-895 -487 0
895 487 0
-896 -490 0
896 490 0
-897 -493 0
897 493 0
-898 -496 0
898 496 0
-899 -499 0
899 499 0
-900 -502 0
900 502 0
-901 -505 0
901 505 0
-902 -508 0
902 508 0
-903 -511 0
903 511 0
-904 -514 0
904 514 0
-905 -517 0
905 517 0
-906 -520 0
906 520 0
-907 -523 0
907 523 0
-908 -526 0
908 526 0
-909 -529 0
909 529 0
-910 -532 0
910 532 0
-911 -535 0
911 535 0
-912 -538 0
912 538 0
-913 -541 0
913 541 0
-914 -544 0
914 544 0
-915 -547 0
915 547 0
-916 -550 0
916 550 0
-917 -553 0
917 553 0
-918 -556 0
918 556 0
-919 -559 0
919 559 0
-920 -562 0
920 562 0
-921 -565 0
921 565 0
-922 -568 0
922 568 0
-923 -571 0
923 571 0
-924 -574 0
924 574 0
-925 -577 0
925 577 0
-926 -580 0
926 580 0
-927 -583 0
927 583 0
-928 -586 0
928 586 0
-929 -589 0
929 589 0
-930 -592 0
930 592 0
-931 -595 0
931 595 0
-932 -598 0
932 598 0
-933 -601 0
933 601 0
-934 -604 0
934 604 0
-935 -607 0
935 607 0
-936 -610 0
936 610 0
-937 -613 0
937 613 0
-938 -616 0
938 616 0
-939 -619 0
939 619 0
-940 -622 0
940 622 0
-941 -625 0
941 625 0
-942 -628 0
942 628 0
-943 -631 0
943 631 0
-944 -634 0
944 634 0
-945 -637 0
945 637 0
-946 -640 0
946 640 0
-947 -643 0
947 643 0
-948 -646 0
948 646 0
-949 -648 0
949 648 0
-950 -651 0
950 651 0
-951 -654 0
951 654 0
-952 -657 0
952 657 0
-953 -660 0
953 660 0
-954 -663 0
954 663 0
-955 -666 0
955 666 0
-956 -669 0
956 669 0
-957 -672 0
957 672 0
-958 -674 0
958 674 0
-959 -677 0
959 677 0
-960 -680 0
960 680 0
-961 -683 0
961 683 0
-962 -686 0
962 686 0
-963 -689 0
963 689 0
-964 -691 0
964 691 0
-965 -694 0
965 694 0
-966 -697 0
966 697 0
698 0
